
Gurobi 7.0.2 (linux64, Matlab) logging started Sun Sep  2 08:38:01 2018


Gurobi 7.0.2 (linux64) logging started Sun Sep  2 08:38:01 2018

Optimize a model with 2961 rows, 10373 columns and 94372 nonzeros
Coefficient statistics:
  Matrix range     [2e-05, 2e+04]
  Objective range  [6e-02, 1e+03]
  Bounds range     [1e-05, 1e+06]
  RHS range        [2e-03, 4e+02]
Iteration    Objective       Primal Inf.    Dual Inf.      Time
       0   -4.4582046e+04   0.000000e+00   1.547531e-06      0s
       1   -4.4582046e+04   0.000000e+00   0.000000e+00      0s

Solved in 1 iterations and 0.01 seconds
Optimal objective -4.458204602e+04
